p edge 25 55
e 1 6
e 1 7
e 1 12
e 1 13
e 1 15
e 1 17
e 1 19
e 1 23
e 1 24
e 2 4
e 2 8
e 2 10
e 2 12
e 2 15
e 2 18
e 2 22
e 3 9
e 3 18
e 3 19
e 3 20
e 4 5
e 4 7
e 4 10
e 4 12
e 4 17
e 4 22
e 4 24
e 5 11
e 6 24
e 7 9
e 7 13
e 8 11
e 8 12
e 9 13
e 9 18
e 9 23
e 10 11
e 10 24
e 11 12
e 11 14
e 11 16
e 11 17
e 11 24
e 12 16
e 12 24
e 12 25
e 14 15
e 14 16
e 14 20
e 15 24
e 16 24
e 16 25
e 19 23
e 21 22
e 24 25
